0 2077
1 1937
2 1908
3 1808
4 1808
5 1751
6 1751
7 1730
8 1730
9 1669
10 1648
11 1637
12 1619
13 1619
14 1619
15 1619
16 1619
17 1619
18 1619
19 1619
20 1619
21 1619
22 1619
23 1606
24 1606
25 1606
26 1606
27 1606
28 1606
29 1605
30 1605
31 1594
32 1584
33 1584
34 1568
35 1568
36 1568
37 1568
38 1540
39 1540
40 1540
41 1471
42 1471
43 1471
44 1471
45 1471
46 1463
47 1463
48 1458
49 1458
50 1458
51 1351
52 1351
53 1351
54 1351
55 1351
56 1351
57 1351
58 1351
59 1351
60 1351
61 1279
62 1279
63 1279
64 1267
65 1267
66 1200
67 1200
68 1200
69 1200
70 1200
71 1200
72 1200
73 1200
74 1200
75 1200
76 1200
77 1200
78 1200
79 1200
80 1200
81 1200
82 1200
83 1189
84 1189
85 1189
86 1189
87 1189
88 1189
89 1189
90 1189
91 1189
92 1189
93 1189
94 1165
95 1165
96 1165
97 1165
98 1165
99 1165
100 1146
101 1146
102 1146
103 1146
104 1146
105 1146
106 1146
107 1146
108 1146
109 1146
110 1146
111 1146
112 1146
113 1146
114 1146
115 1146
116 1146
117 1146
118 1146
119 1146
120 1146
121 1146
122 1146
123 1146
124 1146
125 1146
126 1146
127 1146
128 1146
129 1146
130 1146
131 1146
132 1146
133 1146
134 1146
135 1146
136 1146
137 1146
138 1146
139 1146
140 1146
141 1146
142 1146
143 1146
144 1146
145 1146
146 1146
147 1146
148 1146
149 1146
150 1146
151 1146
152 1146
153 1146
154 1146
155 1146
156 1146
157 1146
158 1146
159 1146
160 1146
161 1146
162 1146
163 1146
164 1146
165 1146
166 1146
167 1146
168 1146
169 1146
170 1146
171 1146
172 1146
173 1146
174 1146
175 1146
176 1146
177 1146
178 1146
179 1146
180 1146
181 1146
182 1146
183 1146
184 1146
185 1146
186 1146
187 1146
188 1146
189 1146
190 1146
191 1146
192 1146
193 1146
194 1146
195 1146
196 1146
197 1146
198 1146
199 1146
200 1145
201 1145
202 1145
203 1145
204 1145
205 1145
206 1145
207 1145
208 1145
209 1145
210 1145
211 1145
212 1126
213 1126
214 1126
215 1126
216 1126
217 1126
218 1126
219 1125
220 1125
221 1125
222 1125
223 1125
224 1125
225 1125
226 1125
227 1125
228 1125
229 1125
230 1125
231 1125
232 1125
233 1125
234 1125
235 1125
236 1125
237 1125
238 1125
239 1125
240 1125
241 1125
242 1125
243 1125
244 1125
245 1125
246 1125
247 1125
248 1125
249 1125
250 1125
251 1125
252 1125
253 1125
254 1125
255 1125
256 1125
257 1125
258 1125
259 1125
260 1088
261 1088
262 1088
263 1088
264 1088
265 1088
266 1088
267 1088
268 1088
269 1088
270 1088
271 1088
272 1088
273 1088
274 1088
275 1088
276 1088
277 1088
278 1088
279 1088
280 1088
281 1088
282 1088
283 1088
284 1088
285 1088
286 1088
287 1088
288 1088
289 1088
290 1088
291 1088
292 1088
293 1088
294 1088
295 1088
296 1088
297 1088
298 1088
299 1088
300 1088
301 1088
302 1088
303 1088
304 1088
305 1088
306 1088
307 1088
308 1088
309 1088
310 1088
311 1088
312 1088
313 1088
314 1088
315 1088
316 1088
317 1088
318 1088
319 1088
320 1088
321 1070
322 1070
323 1070
324 1070
325 1070
326 1070
327 1070
328 1070
329 1070
330 1070
331 1070
332 1063
333 1063
334 1063
335 1063
336 1063
337 1063
338 1063
339 1063
340 1063
341 1063
342 1063
343 1063
344 1063
345 1063
346 1063
347 1063
348 1063
349 1063
350 1063
351 1063
352 1063
353 1063
354 1063
355 1063
356 1063
357 1063
358 1062
359 1062
360 1062
361 1062
362 1062
363 1062
364 1062
365 1062
366 1062
367 1062
368 1062
369 1062
370 1062
371 1062
372 1062
373 1057
374 1057
375 1057
376 1057
377 1057
378 1057
379 1057
380 1057
381 1057
382 1057
383 1057
384 1057
385 1057
386 1057
387 1057
388 1057
389 1057
390 1057
391 1057
392 1057
393 1057
394 1057
395 1057
396 1057
397 1057
398 1057
399 1057
400 1057
401 1057
402 1057
403 1057
404 1057
405 1057
406 1057
407 1057
408 1057
409 1057
410 1057
411 1057
412 1057
413 1057
414 1057
415 1057
416 1057
417 1057
418 1057
419 1057
420 1057
421 1057
422 1057
423 1057
424 1057
425 1057
426 1057
427 1057
428 1057
429 1057
430 1057
431 1057
432 1057
433 1057
434 1057
435 1057
436 1057
437 1057
438 1057
439 1057
440 1057
441 1057
442 1057
443 1057
444 1057
445 1057
446 1057
447 1057
448 1057
449 1057
450 1057
451 1057
452 1057
453 1057
454 1057
455 1057
456 1057
457 1057
458 1057
459 1057
460 1057
461 1057
462 1057
463 1057
464 1057
465 1057
466 1057
467 1057
468 1057
469 1057
470 1057
471 1057
472 1057
473 1057
474 1057
475 1057
476 1057
477 1057
478 1057
479 1057
480 1057
481 1057
482 1057
483 1057
484 1057
485 1057
486 1057
487 1057
488 1057
489 1057
490 1057
491 1057
492 1057
493 1057
494 1032
495 1032
496 1032
497 1032
498 1032
499 1032
500 1032
501 1032
502 1032
503 1032
504 1032
505 1032
506 1032
507 1032
508 1032
509 1032
510 1032
511 1032
512 1032
513 1032
514 1032
515 1032
516 1032
517 1032
518 1032
519 1032
520 1032
521 1032
522 1032
523 1032
524 1032
525 1032
526 1032
527 1032
528 1032
529 1032
530 1032
531 1032
532 1032
533 1032
534 1032
535 1032
536 1032
537 1032
538 1032
539 1032
540 1032
541 1032
542 1032
543 1032
544 1032
545 1032
546 1032
547 1032
548 1032
549 1032
550 1032
551 1032
552 1032
553 1032
554 1032
555 1032
556 1032
557 1032
558 1032
559 1032
560 1032
561 1032
562 1032
563 1032
564 1032
565 1032
566 1032
567 1032
568 1032
569 1032
570 1032
571 1032
572 1032
573 1032
574 1032
575 1032
576 1032
577 1032
578 1032
579 1032
580 1032
581 1032
582 1032
583 1032
584 1032
585 1032
586 1032
587 1032
588 1032
589 1032
590 1032
591 1032
592 1032
593 1032
594 1032
595 1032
596 1032
597 1032
598 1032
599 1032
600 1032
601 1032
602 1032
603 1032
604 1032
605 1032
606 1032
607 1032
608 1032
609 1032
610 1032
611 1032
612 1032
613 1032
614 1032
615 1032
616 1032
617 1032
618 1032
619 1032
620 1032
621 1032
622 1032
623 1032
624 1032
625 1032
626 1032
627 1032
628 1032
629 1032
630 1032
631 1032
632 1032
633 1032
634 1032
635 1032
636 1032
637 1032
638 1032
639 1032
640 1032
641 1032
642 1032
643 1032
644 1032
645 1032
646 1032
647 1032
648 1032
649 1032
650 1032
651 1032
652 1032
653 1032
654 1032
655 1032
656 1032
657 1032
658 1032
659 1032
660 1032
661 1032
662 1032
663 1032
664 1032
665 1032
666 1032
667 1032
668 1032
669 1032
670 1032
671 1032
672 1032
673 1032
674 1032
675 1032
676 1032
677 1032
678 1032
679 1032
680 1032
681 1032
682 1032
683 1032
684 1032
685 1032
686 1032
687 1032
688 1032
689 1032
690 1032
691 1032
692 1032
693 1032
694 1032
695 1032
696 1032
697 1032
698 1032
699 1032
700 1032
701 1032
702 1032
703 1032
704 1032
705 1032
706 1032
707 1032
708 1032
709 1032
710 1032
711 1032
712 1032
713 1032
714 1032
715 1032
716 1032
717 1032
718 1032
719 1032
720 1032
721 1032
722 1032
723 1032
724 1032
725 1032
726 1032
727 1032
728 1032
729 1032
730 1032
731 1032
732 1032
733 1032
734 1032
735 1032
736 1032
737 1032
738 1032
739 1032
740 1032
741 1032
742 1032
743 1032
744 1032
745 1032
746 1032
747 1032
748 1032
749 1032
750 1032
751 1032
752 1032
753 1032
754 1032
755 1032
756 1032
757 1032
758 1032
759 1032
760 1032
761 1032
762 1032
763 1032
764 1032
765 1032
766 1032
767 1032
768 1032
769 1032
770 1032
771 1032
772 1032
773 1032
774 1032
775 1032
776 1032
777 1032
778 1032
779 1032
780 1032
781 1032
782 1032
783 1032
784 1032
785 1032
786 1032
787 1032
788 1032
789 1032
790 1032
791 1032
792 1032
793 1032
794 1032
795 1032
796 1032
797 1032
798 1032
799 1032
800 1032
801 1032
802 1032
803 1032
804 1032
805 1032
806 1032
807 1032
808 1032
809 1032
810 1032
811 1032
812 1032
813 1032
814 1032
815 1032
816 1032
817 1032
818 1032
819 1032
820 1032
821 1032
822 1032
823 1032
824 1032
825 1032
826 1032
827 1032
828 1032
829 1032
830 1032
831 1032
832 1032
833 1032
834 1032
835 1032
836 1032
837 1032
838 1032
839 1032
840 1032
841 1032
842 1032
843 1032
844 1032
845 1032
846 1032
847 1032
848 1032
849 1032
850 1032
851 1032
852 1032
853 1032
854 1032
855 1032
856 1032
857 1032
858 1032
859 1032
860 1032
861 1032
862 1032
863 1032
864 1032
865 1032
866 1032
867 1032
868 1032
869 1032
870 1032
871 1032
872 1032
873 1032
874 1032
875 1032
876 1032
877 1032
878 1032
879 1032
880 1032
881 1032
882 1032
883 1032
884 1032
885 1032
886 1032
887 1032
888 1032
889 1032
890 1032
891 1032
892 1032
893 1032
894 1032
895 1032
896 1032
897 1032
898 1032
899 1032
900 1032
901 1032
902 1032
903 1032
904 1032
905 1032
906 1032
907 1032
908 1032
909 1032
910 1032
911 1032
912 1032
913 1032
914 1032
915 1032
916 1032
917 1032
918 1032
919 1032
920 1032
921 1032
922 1032
923 1032
924 1032
925 1032
926 1032
927 1032
928 1032
929 1032
930 1032
931 1032
932 1032
933 1032
934 1032
935 1032
936 1032
937 1032
938 1032
939 1032
940 1032
941 1032
942 1032
943 1032
944 1032
945 1032
946 1032
947 1032
948 1032
949 1032
950 1032
951 1032
952 1032
953 1032
954 1032
955 1032
956 1032
957 1032
958 1032
959 1032
960 1032
961 1032
962 1032
963 1032
964 1032
965 1032
966 1032
967 1032
968 1032
969 1032
970 1032
971 1032
972 1032
973 1032
974 1032
975 1032
976 1032
977 1032
978 1032
979 1032
980 1032
981 1032
982 1032
983 1032
984 1032
985 1032
986 1032
987 1032
988 1032
989 1032
990 1032
991 1032
992 1032
993 1032
994 1032
995 1032
996 1032
997 1032
998 1032
999 1032
Best: [[28,25],
       [22,18,4,9,10,23,16,11,30],
       [15,7,24,3,20,32,2],
       [31,27,8,14,29,12,5,19],
       [13,17,6,26,21]], fitness: 1032
